NAME : XML100_3215_22
DIMENSION : 101
NB_CLUSTERS : 5
CLUSTERING_ALG : KMeans
CLUSTERING_PARAMS : k(4)
CLUSTERS
1 0
2 1 4 12 14 21 25 29 33 35 36 38 40 42 45 50 53 57 65 66 70 76 80 82 96 99
3 3 17 18 19 20 22 24 39 41 46 51 55 56 60 62 64 74 78 84 85 86 89 90 91 92 93 95
4 6 7 9 10 16 23 32 37 43 44 47 49 58 59 68 81 94 97 100
5 2 5 8 11 13 15 26 27 28 30 31 34 48 52 54 61 63 67 69 71 72 73 75 77 79 83 87 88 98
EOF